(set-logic BV) (define-fun origCir ((i42 Bool) (i10 Bool) (i9 Bool) (i41 Bool) (i40 Bool) (i8 Bool)) Bool (and (xor (xor i42 i10) (and i41 i9)) (and (xor i41 i9) (and i40 i8)))) (synth-fun skel ((i42 Bool) (i10 Bool) (i9 Bool) (i41 Bool) (i40 Bool) (i8 Bool)) Bool) (declare-var i42 Bool) (declare-var i10 Bool) (declare-var i9 Bool) (declare-var i41 Bool) (declare-var i40 Bool) (declare-var i8 Bool) (constraint (= (origCir i42 i10 i9 i41 i40 i8) (skel i42 i10 i9 i41 i40 i8))) (check-synth)
